
  22    4
  10   10   10   10

   0   0   0   0   0   4 2 3 5 6 
   6  10  10  10  10   4 12 11 8 4 
   4  10  10  10  10   2 8 4 
  10  10  10  10  10   2 10 7 
   8  10  10  10  10   3 14 11 10 
  10  10  10  10  10   1 7 
   8  10  10  10  10   2 13 9 
   4  10  10  10  10   2 14 10 
   2  10  10  10  10   3 17 16 14 
   1  10  10  10  10   2 17 13 
   3  10  10  10  10   2 17 13 
   1  10  10  10  10   1 13 
   4  10  10  10  10   4 21 18 16 15 
  10  10  10  10  10   3 21 18 15 
   2  10  10  10  10   2 20 19 
   4  10  10  10  10   2 20 19 
   4  10  10  10  10   2 21 20 
  10  10  10  10  10   1 19 
   4  10  10  10  10   1 22
   3  10  10  10  10   1 22
   2  10  10  10  10   1 22
   0   0   0   0   0   0 
